! Touchstone file exported from HFSS 2023.1.0
!        File:           D:/codex_workspace/hfss_ura16_quick_model/hfss_outputs/v125_feedpoint_input_impedance_20260805_run01/1x1/uniform_2p50/v125_1x1_uniform_2p50.aedt
!        Generated:      1:43:41 %x4E0A%x5348  8%x6708 05, 2026
!        Design:         SmallCell_DualSlot_10GHz
!        Project:        v125_1x1_uniform_2p50
!        Setup:          Setup_10GHz
!        Solution:       Sweep_Gate3
!
# GHz S MA R 50.000000
! Terminal data exported
! Port[1] = P000
9.96                           0.152546963750653 78.9996929374092 
10                             0.182854764334044 99.0783228889727 
10.04                          0.234520482807053 109.813943950033 
