! Touchstone file exported from HFSS 2023.1.0
!        File:           D:/codex_workspace/hfss_ura16_quick_model/hfss_outputs/v148_reference_element_import_20260812_run01/myriadrf_vivaldi_calibration_run03_port_mesh/nominal_direct/v148_myriadrf_vivaldi_nominal_direct.aedt
!        Generated:      12:55:01 %x4E0B%x5348  8%x6708 12, 2026
!        Design:         V148_MyriadRF_Vivaldi_Calibration_1x1
!        Project:        v148_myriadrf_vivaldi_nominal_direct
!        Setup:          Setup_10GHz
!        Solution:       Sweep_Broad
!
# GHz S MA R 50.000000
! Terminal data exported
! Port[1] = P1
3.5                            0.209887406814095 85.8978749621383
3.6                            0.145625600791704 73.8699416959437
3.7                            0.0848865895085579 66.5302268203771
3.8                            0.0345962177806742 82.5725619269897
3.9                            0.0385889599979565 158.232938175089
4                              0.0778999937813542 166.956216603166
4.1                            0.113902041355217 159.522672556322
4.2                            0.1432334226312  148.684474914494
4.3                            0.165449189038657 136.575101380891
4.4                            0.180586978354101 123.748312311371
4.5                            0.188849881417453 110.332092626963
4.6                            0.190540028434173 96.2797269679653
4.7                            0.18607252326239 81.4312125630027
4.8                            0.176044661933676 65.5080676949967
4.9                            0.161367057375034 48.0632556641251
5                              0.143486340478049 28.3865696147297
5.1                            0.124751635053556 5.40950397076365
5.2                            0.10889901211924 -22.0700110145049
5.3                            0.101063916771757 -53.816704010122
5.4                            0.111234500947623 -85.9588307503544
5.5                            0.120874786490991 -120.907141868976
5.6                            0.136618988697527 -146.073624657715
5.7                            0.148179453416928 -161.208529881343
5.8                            0.188906761786832 177.663503209158
5.9                            0.205787931967785 159.229701514805
6                              0.218451640585056 142.903083591691
6.1                            0.226409619492989 127.612068221418
6.2                            0.22929625133993 112.968464400725
6.3                            0.22704579801909 98.7479574485102
6.4                            0.219807877690915 84.7927075734903
6.5                            0.20790178494474 70.9774378315892
6.6                            0.191795692238463 57.1912047464032
6.7                            0.172097546301189 43.3218465878174
6.8                            0.14954828274143 29.2350511649236
6.9                            0.125011506224827 14.7359393332644
7                              0.0994597636029311 -0.516904350427405
7.1                            0.0739719550623531 -17.2414794161879
7.2                            0.049809089475745 -37.2943332526251
7.3                            0.0289421080272371 -66.903966778108
7.4                            0.0172838785734042 -125.996131817017
7.5                            0.0227477439157477 170.372678867028
7.6                            0.0333505449543617 137.985215474022
7.7                            0.0416419830171786 116.109130762002
7.8                            0.0460715670096139 97.1075526708537
7.9                            0.0463227694306155 78.2762880295947
8                              0.0426531075869603 57.5938023549661
8.1                            0.036118959139596 31.9135997935428
8.2                            0.0297583979926936 -4.67255723990807
8.3                            0.0303883513732607 -53.4317760330665
8.4                            0.0423425565738836 -95.3315025299635
8.5                            0.061692736385933 -123.885624453239
8.6                            0.0844767873566836 -145.237469080101
8.7                            0.108438316040695 -163.161074751316
8.8                            0.131991594073314 -179.303165095886
8.9                            0.153818708842846 165.580055178853
9                              0.172777385662422 151.107580437196
9.1                            0.187897298686013 137.070372800842
9.2                            0.198395211298202 123.345385911708
9.3                            0.203689124572157 109.857391122511
9.4                            0.203409207224028 96.5630086237313
9.5                            0.197409445389659 83.4471402337613
9.6                            0.185784277821342 70.5288017204085
9.7                            0.168891397715963 57.878149982947
9.8                            0.147377864489256 45.6540321258345
9.9                            0.122206119202068 34.1913800826616
10                             0.0946913297613921 24.235852657766
10.1                           0.0666410872005951 17.7053489757767
10.2                           0.0411397592781564 20.6855493100999
10.3                           0.0267406043604335 49.8297120856112
10.4                           0.0345540359461545 82.9595706582611
10.5                           0.0510499841471442 88.2222308792853
10.6                           0.0660011437812176 82.2875159892328
10.7                           0.0768609842145814 72.260623302902
10.8                           0.0829296218004207 60.1988396844406
10.9                           0.0841498635533325 46.6997932368564
11                             0.0808388852108028 31.7502995711791
11.1                           0.0736372748632648 14.8706853829742
11.2                           0.0636064845106284 -5.05700773422384
11.3                           0.0525831906905157 -30.226297876682
11.4                           0.0439523583011723 -63.7921021745806
11.5                           0.042648468600789 -104.826380531782
11.6                           0.0505074413874078 -143.05306561769
11.7                           0.0636623609112141 -173.019242849172
11.8                           0.0776812989583349 162.746644834176
11.9                           0.0896101513322934 141.341403105548
12                             0.0974588054373165 120.956023954492
12.1                           0.0998509101286298 100.305651186936
12.2                           0.096048885002229 78.0365365290188
12.3                           0.0864112779651156 52.0209027337193
12.4                           0.0739028608327378 18.2655906892771
12.5                           0.0676631193165339 -27.9140347735522
12.6                           0.080907925299475 -78.7857338812063
12.7                           0.111893194872517 -120.04079401375
12.8                           0.145217966601831 -152.718586578758
12.9                           0.164137062144594 -179.927224519308
13                             0.15865603533152 159.574209500426
13.1                           0.137363738698331 151.249669868541
13.2                           0.13368577642135 158.859149331456
13.3                           0.1783914197013  165.647408869402
13.4                           0.259499108692934 159.576500367854
13.5                           0.355480496170538 145.148936255343
13.6                           0.447520617247135 126.106678435682
13.7                           0.51427465786129 104.580556110399
13.8                           0.53962538508605 82.5168261727767
13.9                           0.524837274158635 61.604393824969
14                             0.485034577912013 42.6949265497865
