! Touchstone file exported from HFSS 2023.1.0
!        File:           D:/codex_workspace/hfss_ura16_quick_model/hfss_outputs/v118_equalized_post_transition_20260730_run01/candidates/eq23p393_launch0p95_pad0p50/integrated_2x2_direct01/v117_integrated_2x2_direct01.aedt
!        Generated:      9:24:34 %x4E0B%x5348  7%x6708 30, 2026
!        Design:         V117_Integrated_Feed_Antenna_2x2
!        Project:        v117_integrated_2x2_direct01
!        Setup:          Setup_10GHz
!        Solution:       Sweep_Gate3
!
! Variables:
!        v_bridge_l = 3.0994372474nH
!        v_bridge_r = 11684.6031440406ohm
!        v_ground_c = 0.1387483048pF
!        v_ground_r = 22941.5333429049ohm
!        v_series_l = 0.6177283279nH
!        v_series_r = 0.4851626942ohm
!
# GHz S MA R 50.000000
! Terminal data exported
! Port[1] = PRE_0
! Port[2] = PRE_1
! Port[3] = PRE_2
! Port[4] = PRE_3
9.96                           0.31958024337062 121.234659508626 0.0452779872033274 -157.110032315367 0.0776828707230873 6.92119414815422 0.0305187007283477 144.907145278085
                               0.0452779872033274 -157.110032315367 0.177216215725858 119.239721737337 0.0361692829648462 153.403346949237 0.0700374627538495 -45.1653401630896
                               0.0776828707230874 6.92119414815422 0.0361692829648462 153.403346949237 0.135802924813891 92.8055635896107 0.0551868323263944 -139.604230254914
                               0.0305187007283477 144.907145278085 0.0700374627538495 -45.1653401630896 0.0551868323263944 -139.604230254914 0.191150853855003 36.422761990479
10                             0.328031482598617 109.014035974265 0.0446970121616717 -166.774058536922 0.0701365505836079 -26.8491251045918 0.0283211783242246 136.321557352358
                               0.0446970121616717 -166.774058536922 0.19121431915416 97.9739779815072 0.0338324690417317 145.112701914259 0.0928932953899334 -72.2169329124396
                               0.0701365505836079 -26.8491251045918 0.0338324690417317 145.112701914259 0.183279884144994 74.3362394447256 0.0511244805035451 -147.704708206718
                               0.0283211783242246 136.321557352358 0.0928932953899334 -72.2169329124396 0.0511244805035451 -147.704708206718 0.249969537015192 32.8512279131283
10.04                          0.332968408829898 97.3844394735195 0.0438854653853516 -176.50802484042 0.0769269211938453 -58.8383250606369 0.026588437483703 128.112526182742
                               0.0438854653853516 -176.50802484042 0.207376386337709 79.4001470321845 0.0319216284808043 136.997408374096 0.118547589397026 -89.9135779221024
                               0.0769269211938453 -58.8383250606369 0.0319216284808043 136.997408374096 0.227806710986477 60.4672448467055 0.0467309969305576 -155.142257005256
                               0.026588437483703 128.112526182742 0.118547589397026 -89.9135779221024 0.0467309969305576 -155.142257005256 0.302269093168301 27.3260958806485
