! Touchstone file exported from HFSS 2023.1.0
!        File:           D:/codex_workspace/hfss_ura16_quick_model/hfss_outputs/v127_aperture_coupled_radiator_20260806_run06_local_mesh/1x1/aperture_center_v1_port_margin/v127_1x1_aperture_center_v1_port_margin.aedt
!        Generated:      12:22:23 %x4E0A%x5348  8%x6708 06, 2026
!        Design:         V127_ApertureCoupled_DualSlot
!        Project:        v127_1x1_aperture_center_v1_port_margin
!        Setup:          Setup_10GHz
!        Solution:       LastAdaptive
!
# GHz S MA R 50.000000
! Terminal data exported
! Port[1] = P000
10                             0.916583105539907 27.2068218758756 
