! Touchstone file exported from HFSS 2023.1.0
!        File:           D:/codex_workspace/hfss_ura16_quick_model/hfss_outputs/v126_uniform_2p10_feedpoint_s4_20260805_run02_serial/2x2_serial/f_9p96ghz/v126_2x2_uniform_2p10_f_9p96ghz.aedt
!        Generated:      2:08:35 %x4E0A%x5348  8%x6708 05, 2026
!        Design:         SmallCell_DualSlot_10GHz
!        Project:        v126_2x2_uniform_2p10_f_9p96ghz
!        Setup:          Setup_10GHz
!        Solution:       LastAdaptive
!
# GHz S MA R 50.000000
! Terminal data exported
! Port[1] = P000
! Port[2] = P001
! Port[3] = P002
! Port[4] = P003
9.96                           0.172639344331847 -3.0596816348653 0.0588183751117689 -11.9515983982139 0.179236005268815 103.248896879855 0.0275514888942592 -68.3248258278932 
                               0.0588183751117689 -11.9515983982139 0.175860167444855 1.09462196786518 0.027410938352894 -67.5209570073663 0.179154974606417 100.661774333125 
                               0.179236005268815 103.248896879855 0.027410938352894 -67.5209570073663 0.170337506810277 -3.35805321743336 0.0587131542461254 -11.9933845419259 
                               0.0275514888942592 -68.3248258278932 0.179154974606417 100.661774333125 0.0587131542461254 -11.9933845419259 0.168835284437526 -2.21835452377826 
