! Touchstone file exported from HFSS 2023.1.0
!        File:           D:/codex_workspace/hfss_ura16_quick_model/hfss_outputs/v132_vertical_differential_launch_20260807_run03_via_holes/vertical_diff_1x1/via_v3_close_pair/v132_via_v3_close_pair.aedt
!        Generated:      12:38:46 %x4E0A%x5348  8%x6708 07, 2026
!        Design:         V132_VerticalDifferential
!        Project:        v132_via_v3_close_pair
!        Setup:          Setup_10GHz
!        Solution:       LastAdaptive
!
# GHz S MA R 50.000000
! Terminal data exported
! Port[1] = P_DIFF
10                             0.12216728638033 -140.188183695102
