! Touchstone file exported from HFSS 2023.1.0
!        File:           D:/codex_workspace/hfss_ura16_quick_model/hfss_outputs/v131_dual_resonant_recovery_20260807_run01/fixed_reference_cps_1x1/load_d7_primary_short_secondary_mid/v130_load_d7_primary_short_secondary_mid.aedt
!        Generated:      12:22:26 %x4E0A%x5348  8%x6708 07, 2026
!        Design:         V130_FixedReference_CPS
!        Project:        v130_load_d7_primary_short_secondary_mid
!        Setup:          Setup_10GHz
!        Solution:       LastAdaptive
!
# GHz S MA R 50.000000
! Terminal data exported
! Port[1] = P_DIFF
10                             0.578387052959451 61.6479660784876
