! Touchstone file exported from HFSS 2023.1.0
!        File:           D:/codex_workspace/hfss_ura16_quick_model/hfss_outputs/v131_dual_resonant_recovery_20260807_run01/fixed_reference_cps_1x1/load_d5_primary_mid_secondary_long/v130_load_d5_primary_mid_secondary_long.aedt
!        Generated:      12:19:55 %x4E0A%x5348  8%x6708 07, 2026
!        Design:         V130_FixedReference_CPS
!        Project:        v130_load_d5_primary_mid_secondary_long
!        Setup:          Setup_10GHz
!        Solution:       LastAdaptive
!
# GHz S MA R 50.000000
! Terminal data exported
! Port[1] = P_DIFF
10                             0.554147599564918 34.8510564332507
