! Touchstone file exported from HFSS 2023.1.0
!        File:           D:/codex_workspace/hfss_ura16_quick_model/hfss_outputs/v131_dual_resonant_recovery_20260807_run01/fixed_reference_cps_1x1/load_d3_split_close/v130_load_d3_split_close.aedt
!        Generated:      12:17:14 %x4E0A%x5348  8%x6708 07, 2026
!        Design:         V130_FixedReference_CPS
!        Project:        v130_load_d3_split_close
!        Setup:          Setup_10GHz
!        Solution:       LastAdaptive
!
# GHz S MA R 50.000000
! Terminal data exported
! Port[1] = P_DIFF
10                             0.542371186019336 33.4037903416522
