! Touchstone file exported from HFSS 2023.1.0
!        File:           D:/codex_workspace/hfss_ura16_quick_model/hfss_outputs/v127_targeted_complex_impedance_doe_20260806_run09/1x1_doe/target_i_b_e_interpolate/v127_doe_target_i_b_e_interpolate.aedt
!        Generated:      1:21:11 %x4E0A%x5348  8%x6708 06, 2026
!        Design:         V127_ApertureCoupled_DualSlot
!        Project:        v127_doe_target_i_b_e_interpolate
!        Setup:          Setup_10GHz
!        Solution:       LastAdaptive
!
# GHz S MA R 50.000000
! Terminal data exported
! Port[1] = P000
10                             0.773679854811893 -12.1376038349143 
