! Touchstone file exported from HFSS 2023.1.0
!        File:           D:/codex_workspace/hfss_ura16_quick_model/hfss_outputs/v127_targeted_complex_impedance_doe_20260806_run09/1x1_doe/target_g_e_short_stub/v127_doe_target_g_e_short_stub.aedt
!        Generated:      1:10:08 %x4E0A%x5348  8%x6708 06, 2026
!        Design:         V127_ApertureCoupled_DualSlot
!        Project:        v127_doe_target_g_e_short_stub
!        Setup:          Setup_10GHz
!        Solution:       LastAdaptive
!
# GHz S MA R 50.000000
! Terminal data exported
! Port[1] = P000
10                             0.828753676510824 11.9653555859216 
