! Touchstone file exported from HFSS 2023.1.0
!        File:           D:/codex_workspace/hfss_ura16_quick_model/hfss_outputs/v127_tongue_resonance_recovery_20260806_run12_partitioned_mesh/1x1_doe/res_p_narrow_tongue_lower_q/v127_doe_res_p_narrow_tongue_lower_q.aedt
!        Generated:      2:04:14 %x4E0A%x5348  8%x6708 06, 2026
!        Design:         V127_ApertureCoupled_DualSlot
!        Project:        v127_doe_res_p_narrow_tongue_lower_q
!        Setup:          Setup_10GHz
!        Solution:       LastAdaptive
!
# GHz S MA R 50.000000
! Terminal data exported
! Port[1] = P000
10                             0.705018754260602 -39.8513205016828 
