! Touchstone file exported from HFSS 2023.1.0
!        File:           D:/codex_workspace/hfss_ura16_quick_model/hfss_outputs/v127_tongue_resonance_recovery_20260806_run12_partitioned_mesh/1x1_doe/res_q_b_aperture_lift/v127_doe_res_q_b_aperture_lift.aedt
!        Generated:      2:10:57 %x4E0A%x5348  8%x6708 06, 2026
!        Design:         V127_ApertureCoupled_DualSlot
!        Project:        v127_doe_res_q_b_aperture_lift
!        Setup:          Setup_10GHz
!        Solution:       LastAdaptive
!
# GHz S MA R 50.000000
! Terminal data exported
! Port[1] = P000
10                             0.628335778069844 -76.6660206010528 
