! Touchstone file exported from HFSS 2023.1.0
!        File:           D:/codex_workspace/hfss_ura16_quick_model/hfss_outputs/v139_physical_2x2_differential_array_20260808_run01/initial_10ghz/direct01_repair03/v139_direct01_repair03.aedt
!        Generated:      12:50:45 %x4E0A%x5348  8%x6708 08, 2026
!        Design:         V139_Physical2x2Differential
!        Project:        v139_direct01_repair03
!        Setup:          Setup_10GHz
!        Solution:       LastAdaptive
!
# GHz S MA R 50.000000
! Terminal data exported
! Port[1] = P00
! Port[2] = P01
! Port[3] = P10
! Port[4] = P11
10                             0.138405864606623 -126.940543860558 0.221120650005401 -124.185373834792 0.177287235448698 -24.2139363904075 0.063652560312172 139.228562638808 
                               0.221120650005401 -124.185373834792 0.138642679019854 -127.753500672212 0.063880131359037 139.19540158061  0.177996764958833 -23.8798286695983 
                               0.177287235448698 -24.2139363904075 0.0638801313590369 139.19540158061  0.136232878997807 -128.024603514836 0.221143940990103 -124.185421282005 
                               0.0636525603121721 139.228562638808 0.177996764958833 -23.8798286695983 0.221143940990103 -124.185421282005 0.13858096432942 -127.726867515263 
