! Touchstone file exported from HFSS 2023.1.0
!        File:           D:/codex_workspace/hfss_ura16_quick_model/hfss_outputs/v127_joint_radiator_input_doe_20260806_run08_fixed_aperture_mesh/1x1_doe/joint_f_mid_inductive/v127_doe_joint_f_mid_inductive.aedt
!        Generated:      1:01:04 %x4E0A%x5348  8%x6708 06, 2026
!        Design:         V127_ApertureCoupled_DualSlot
!        Project:        v127_doe_joint_f_mid_inductive
!        Setup:          Setup_10GHz
!        Solution:       LastAdaptive
!
# GHz S MA R 50.000000
! Terminal data exported
! Port[1] = P000
10                             0.928491712946149 36.4310106917319 
