! Touchstone file exported from HFSS 2023.1.0
!        File:           D:/codex_workspace/hfss_ura16_quick_model/hfss_outputs/v126_uniform_2p10_feedpoint_s4_20260805_run02_serial/2x2_serial/f_10p04ghz/v126_2x2_uniform_2p10_f_10p04ghz.aedt
!        Generated:      2:20:37 %x4E0A%x5348  8%x6708 05, 2026
!        Design:         SmallCell_DualSlot_10GHz
!        Project:        v126_2x2_uniform_2p10_f_10p04ghz
!        Setup:          Setup_10GHz
!        Solution:       LastAdaptive
!
# GHz S MA R 50.000000
! Terminal data exported
! Port[1] = P000
! Port[2] = P001
! Port[3] = P002
! Port[4] = P003
10.04                          0.0565850363478337 55.9058919682075 0.0560264211753088 -28.5688096914022 0.178261496016314 84.1464300412064 0.0246792035108213 -85.5634129812269 
                               0.0560264211753088 -28.5688096914022 0.0751189033700572 53.1074246797663 0.0245520821578124 -83.840658693707 0.178186761790531 81.2071856301656 
                               0.178261496016314 84.1464300412064 0.0245520821578124 -83.840658693707 0.0612786757604378 56.0885186413042 0.056488083182259 -28.4211311201337 
                               0.0246792035108213 -85.5634129812269 0.178186761790531 81.2071856301656 0.056488083182259 -28.4211311201337 0.0633000511365249 55.6678899160023 
