! Touchstone file exported from HFSS 2023.1.0
!        File:           D:/codex_workspace/hfss_ura16_quick_model/hfss_outputs/v126_uniform_2p10_feedpoint_s4_20260805_run02_serial/2x2_serial/f_10p00ghz/v126_2x2_uniform_2p10_f_10p00ghz.aedt
!        Generated:      2:14:59 %x4E0A%x5348  8%x6708 05, 2026
!        Design:         SmallCell_DualSlot_10GHz
!        Project:        v126_2x2_uniform_2p10_f_10p00ghz
!        Setup:          Setup_10GHz
!        Solution:       LastAdaptive
!
# GHz S MA R 50.000000
! Terminal data exported
! Port[1] = P000
! Port[2] = P001
! Port[3] = P002
! Port[4] = P003
10                             0.115563877480847 5.4850433782166  0.0575669131554274 -18.9442841781089 0.179437936637227 96.014067899902  0.0263740473334886 -75.3956981652331 
                               0.0575669131554274 -18.9442841781089 0.121613714412673 9.00036797881263 0.026170375993682 -74.3130721044369 0.179133224062116 93.2205567306491 
                               0.179437936637227 96.014067899902  0.026170375993682 -74.3130721044369 0.121142168541556 1.68267850050119 0.0588875940079903 -17.8638479582898 
                               0.0263740473334886 -75.3956981652331 0.179133224062116 93.2205567306491 0.0588875940079903 -17.8638479582898 0.123425260603374 8.71926979854042 
