! Touchstone file exported from HFSS 2023.1.0
!        File:           D:/codex_workspace/hfss_ura16_quick_model/hfss_outputs/v117_integrated_2x2_smoke_20260730_run03/integrated_2x2_direct01/v117_integrated_2x2_direct01.aedt
!        Generated:      7:55:45 %x4E0B%x5348  7%x6708 30, 2026
!        Design:         V117_Integrated_Feed_Antenna_2x2
!        Project:        v117_integrated_2x2_direct01
!        Setup:          Setup_10GHz
!        Solution:       Sweep_Gate3
!
! Variables:
!        v_bridge_l = 3.0994372474nH
!        v_bridge_r = 11684.6031440406ohm
!        v_ground_c = 0.1387483048pF
!        v_ground_r = 22941.5333429049ohm
!        v_series_l = 0.6177283279nH
!        v_series_r = 0.4851626942ohm
!
# GHz S MA R 50.000000
! Terminal data exported
! Port[1] = PRE_0
! Port[2] = PRE_1
! Port[3] = PRE_2
! Port[4] = PRE_3
9.96                           0.313746989106956 53.7383452707099 0.049041275820307 21.9353910939348 0.223080212685301 150.016374981272 0.0251453825912901 70.427472238662
                               0.0490412758203069 21.9353910939348 0.351036076466209 80.1200911769863 0.0155506791321607 55.9041254987639 0.0899028528715567 -67.5111836607651
                               0.223080212685301 150.016374981272 0.0155506791321607 55.9041254987639 0.255966123617397 71.678128639615  0.060492380935957 -144.134627943241
                               0.0251453825912901 70.427472238662  0.0899028528715567 -67.5111836607651 0.0604923809359571 -144.134627943242 0.0935932246489386 -7.48434588143786
10                             0.343680515883566 61.5383318496151 0.0482905598039924 11.9792814991739 0.218675322234086 141.623332286723 0.0240767216187896 55.1394138192902
                               0.0482905598039924 11.9792814991739 0.295363450684238 76.5964500848522 0.0143904572965518 49.1631720385998 0.101136368665187 -85.6764477342108
                               0.218675322234086 141.623332286723 0.0143904572965519 49.1631720385998 0.212547040675552 56.875912010412  0.0590138905243514 -153.228887321578
                               0.0240767216187896 55.1394138192902 0.101136368665187 -85.6764477342108 0.0590138905243514 -153.228887321578 0.0953174884642786 43.7015306467023
10.04                          0.386786001382298 66.3986674465575 0.0470759602911893 1.95385504218589 0.211713064089037 133.043864700886 0.022878937922519 40.4371323335829
                               0.0470759602911893 1.95385504218589 0.235285699210707 74.2700168433806 0.0135554149099805 43.6635205268626 0.113352836126352 -101.474903188015
                               0.211713064089037 133.043864700886 0.0135554149099805 43.6635205268626 0.166997248445381 38.1751120139796 0.0566825342416554 -162.112466951102
                               0.022878937922519 40.4371323335831 0.113352836126352 -101.474903188015 0.0566825342416554 -162.112466951102 0.160901504395099 64.2592761559212
