! Touchstone file exported from HFSS 2023.1.0
!        File:           D:/codex_workspace/hfss_ura16_quick_model/hfss_outputs/v133_vertical_differential_three_frequency_20260807_run01/vertical_diff_1x1/via_v0_f9p96/v132_via_v0_f9p96.aedt
!        Generated:      12:49:38 %x4E0A%x5348  8%x6708 07, 2026
!        Design:         V132_VerticalDifferential
!        Project:        v132_via_v0_f9p96
!        Setup:          Setup_10GHz
!        Solution:       LastAdaptive
!
# GHz S MA R 50.000000
! Terminal data exported
! Port[1] = P_DIFF
9.96                           0.113909175734786 -157.677896986897
