! Touchstone file exported from HFSS 2023.1.0
!        File:           D:/codex_workspace/hfss_ura16_quick_model/hfss_outputs/v134_vertical_differential_geometry_smoke_20260807_run01/vertical_diff_1x1/via_v0_stable_boolean/v132_via_v0_stable_boolean.aedt
!        Generated:      1:03:32 %x4E0A%x5348  8%x6708 07, 2026
!        Design:         V132_VerticalDifferential
!        Project:        v132_via_v0_stable_boolean
!        Setup:          Setup_10GHz
!        Solution:       LastAdaptive
!
# GHz S MA R 50.000000
! Terminal data exported
! Port[1] = P_DIFF
10                             0.101315422973294 -163.861392195224
